assignment_2/output/insertion/a280_insertion.tour
NAME : a280
COMMENT: Tour length 3094
TYPE : TOUR
DIMENSION : 280
TOUR_SECTION
1
2
280
5
7
8
10
11
15
14
13
12
9
6
4
277
276
275
274
273
272
270
269
268
267
264
265
266
140
141
142
146
145
199
198
196
195
194
197
201
202
203
204
205
207
212
213
216
217
220
221
222
223
224
225
226
227
228
229
230
251
246
231
232
233
234
235
236
237
238
239
240
241
242
243
244
245
247
250
248
249
219
218
215
214
211
210
209
252
255
256
258
257
254
253
208
206
200
144
143
147
148
149
150
139
138
137
136
135
134
133
132
131
130
129
154
155
153
156
152
151
178
177
176
179
180
181
182
183
184
185
186
187
193
192
191
190
189
188
166
172
171
169
170
106
173
174
107
105
108
110
111
114
115
112
109
89
88
113
87
86
116
117
118
61
60
34
35
36
37
38
39
40
41
42
43
58
57
56
55
54
53
52
51
50
49
48
47
46
45
44
59
62
63
64
68
69
67
70
71
72
73
74
75
77
78
76
66
65
85
84
83
82
81
79
80
95
96
97
98
94
93
92
91
90
104
103
102
101
99
100
168
167
165
164
163
162
161
175
160
159
158
157
119
120
121
122
123
124
125
30
31
33
32
28
27
24
23
25
22
26
29
126
127
128
21
20
19
18
17
16
271
263
262
261
260
259
278
279
3
1
-1
EOF